src/crossbar_controller/crossbar_controller_task1/model/design_smt2.smt2
; SMT-LIBv2 description generated by Yosys 0.33+67 (git sha1 076c5ceb7, clang 10.0.0-4ubuntu1 -fPIC -Os)
; yosys-smt2-module crossbar_controller
(declare-sort |crossbar_controller_s| 0)
(declare-fun |crossbar_controller_is| (|crossbar_controller_s|) Bool)
(declare-fun |crossbar_controller#0| (|crossbar_controller_s|) Bool) ; \w
; yosys-smt2-input w 1
; yosys-smt2-wire w 1
; yosys-smt2-witness {"offset": 0, "path": ["\\w"], "smtname": "w", "smtoffset": 0, "type": "input", "width": 1}
(define-fun |crossbar_controller_n w| ((state |crossbar_controller_s|)) Bool (|crossbar_controller#0| state))
(declare-fun |crossbar_controller#1| (|crossbar_controller_s|) Bool) ; \s
; yosys-smt2-input s 1
; yosys-smt2-wire s 1
; yosys-smt2-witness {"offset": 0, "path": ["\\s"], "smtname": "s", "smtoffset": 0, "type": "input", "width": 1}
(define-fun |crossbar_controller_n s| ((state |crossbar_controller_s|)) Bool (|crossbar_controller#1| state))
(declare-fun |crossbar_controller#2| (|crossbar_controller_s|) (_ BitVec 6)) ; \in
; yosys-smt2-input in 6
; yosys-smt2-wire in 6
; yosys-smt2-witness {"offset": 0, "path": ["\\in"], "smtname": "in", "smtoffset": 0, "type": "input", "width": 6}
(define-fun |crossbar_controller_n in| ((state |crossbar_controller_s|)) (_ BitVec 6) (|crossbar_controller#2| state))
(define-fun |crossbar_controller#3| ((state |crossbar_controller_s|)) (_ BitVec 6) (ite (|crossbar_controller#1| state) #b010010 (|crossbar_controller#2| state))) ; $2\defaultout[5:0]
(define-fun |crossbar_controller#4| ((state |crossbar_controller_s|)) (_ BitVec 6) (ite (|crossbar_controller#0| state) #b001001 (|crossbar_controller#3| state))) ; \defaultout
; yosys-smt2-output defaultout 6
; yosys-smt2-wire defaultout 6
(define-fun |crossbar_controller_n defaultout| ((state |crossbar_controller_s|)) (_ BitVec 6) (|crossbar_controller#4| state))
; yosys-smt2-anyseq crossbar_controller#5 1 $auto$setundef.cc:533:execute$67
; yosys-smt2-witness {"offset": 0, "path": ["\\_witness_", "\\anyseq_auto_setundef_cc_533_execute_67"], "smtname": 5, "smtoffset": 0, "type": "seq", "width": 1}
(declare-fun |crossbar_controller#5| (|crossbar_controller_s|) (_ BitVec 1)) ; \_witness_.anyseq_auto_setundef_cc_533_execute_67
; yosys-smt2-wire _witness_.anyseq_auto_setundef_cc_533_execute_67 1
(define-fun |crossbar_controller_n _witness_.anyseq_auto_setundef_cc_533_execute_67| ((state |crossbar_controller_s|)) Bool (= ((_ extract 0 0) (|crossbar_controller#5| state)) #b1))
; yosys-smt2-anyseq crossbar_controller#6 1 $auto$setundef.cc:533:execute$65
; yosys-smt2-witness {"offset": 0, "path": ["\\_witness_", "\\anyseq_auto_setundef_cc_533_execute_65"], "smtname": 6, "smtoffset": 0, "type": "seq", "width": 1}
(declare-fun |crossbar_controller#6| (|crossbar_controller_s|) (_ BitVec 1)) ; \_witness_.anyseq_auto_setundef_cc_533_execute_65
; yosys-smt2-wire _witness_.anyseq_auto_setundef_cc_533_execute_65 1
(define-fun |crossbar_controller_n _witness_.anyseq_auto_setundef_cc_533_execute_65| ((state |crossbar_controller_s|)) Bool (= ((_ extract 0 0) (|crossbar_controller#6| state)) #b1))
; yosys-smt2-anyseq crossbar_controller#7 1 $auto$setundef.cc:533:execute$63
; yosys-smt2-witness {"offset": 0, "path": ["\\_witness_", "\\anyseq_auto_setundef_cc_533_execute_63"], "smtname": 7, "smtoffset": 0, "type": "seq", "width": 1}
(declare-fun |crossbar_controller#7| (|crossbar_controller_s|) (_ BitVec 1)) ; \_witness_.anyseq_auto_setundef_cc_533_execute_63
; yosys-smt2-wire _witness_.anyseq_auto_setundef_cc_533_execute_63 1
(define-fun |crossbar_controller_n _witness_.anyseq_auto_setundef_cc_533_execute_63| ((state |crossbar_controller_s|)) Bool (= ((_ extract 0 0) (|crossbar_controller#7| state)) #b1))
; yosys-smt2-anyseq crossbar_controller#8 1 $auto$setundef.cc:533:execute$61
; yosys-smt2-witness {"offset": 0, "path": ["\\_witness_", "\\anyseq_auto_setundef_cc_533_execute_61"], "smtname": 8, "smtoffset": 0, "type": "seq", "width": 1}
(declare-fun |crossbar_controller#8| (|crossbar_controller_s|) (_ BitVec 1)) ; \_witness_.anyseq_auto_setundef_cc_533_execute_61
; yosys-smt2-wire _witness_.anyseq_auto_setundef_cc_533_execute_61 1
(define-fun |crossbar_controller_n _witness_.anyseq_auto_setundef_cc_533_execute_61| ((state |crossbar_controller_s|)) Bool (= ((_ extract 0 0) (|crossbar_controller#8| state)) #b1))
; yosys-smt2-anyseq crossbar_controller#9 1 $auto$setundef.cc:533:execute$59
; yosys-smt2-witness {"offset": 0, "path": ["\\_witness_", "\\anyseq_auto_setundef_cc_533_execute_59"], "smtname": 9, "smtoffset": 0, "type": "seq", "width": 1}
(declare-fun |crossbar_controller#9| (|crossbar_controller_s|) (_ BitVec 1)) ; \_witness_.anyseq_auto_setundef_cc_533_execute_59
; yosys-smt2-wire _witness_.anyseq_auto_setundef_cc_533_execute_59 1
(define-fun |crossbar_controller_n _witness_.anyseq_auto_setundef_cc_533_execute_59| ((state |crossbar_controller_s|)) Bool (= ((_ extract 0 0) (|crossbar_controller#9| state)) #b1))
(define-fun |crossbar_controller#10| ((state |crossbar_controller_s|)) Bool (= (|crossbar_controller#4| state) (|crossbar_controller#2| state))) ; $eq$crossbar_controller.v:43$16_Y
(define-fun |crossbar_controller#11| ((state |crossbar_controller_s|)) (_ BitVec 1) (ite (|crossbar_controller#1| state) (|crossbar_controller#6| state) (ite (|crossbar_controller#10| state) #b1 #b0))) ; $procmux$45_Y
(define-fun |crossbar_controller#12| ((state |crossbar_controller_s|)) (_ BitVec 1) (ite (|crossbar_controller#0| state) (|crossbar_controller#5| state) (|crossbar_controller#11| state))) ; $0$formal$crossbar_controller.v:42$3_CHECK[0:0]$12
(define-fun |crossbar_controller#13| ((state |crossbar_controller_s|)) (_ BitVec 1) (ite (|crossbar_controller#1| state) #b0 #b1)) ; $procmux$39_Y
(define-fun |crossbar_controller#14| ((state |crossbar_controller_s|)) (_ BitVec 1) (ite (|crossbar_controller#0| state) #b0 (|crossbar_controller#13| state))) ; $0$formal$crossbar_controller.v:42$3_EN[0:0]$13
; yosys-smt2-assert 0 $assert$crossbar_controller.v:42$19 crossbar_controller.v:42.19-43.32
(define-fun |crossbar_controller_a 0| ((state |crossbar_controller_s|)) Bool (or (= ((_ extract 0 0) (|crossbar_controller#12| state)) #b1) (not (= ((_ extract 0 0) (|crossbar_controller#14| state)) #b1)))) ; $assert$crossbar_controller.v:42$19
(define-fun |crossbar_controller#15| ((state |crossbar_controller_s|)) Bool (= (|crossbar_controller#4| state) #b010010)) ; $eq$crossbar_controller.v:39$14_Y
(define-fun |crossbar_controller#16| ((state |crossbar_controller_s|)) (_ BitVec 1) (ite (|crossbar_controller#1| state) (ite (|crossbar_controller#15| state) #b1 #b0) (|crossbar_controller#8| state))) ; $procmux$33_Y
(define-fun |crossbar_controller#17| ((state |crossbar_controller_s|)) (_ BitVec 1) (ite (|crossbar_controller#0| state) (|crossbar_controller#7| state) (|crossbar_controller#16| state))) ; $0$formal$crossbar_controller.v:40$2_CHECK[0:0]$10
(define-fun |crossbar_controller#18| ((state |crossbar_controller_s|)) (_ BitVec 1) (ite (|crossbar_controller#1| state) #b1 #b0)) ; $procmux$27_Y
(define-fun |crossbar_controller#19| ((state |crossbar_controller_s|)) (_ BitVec 1) (ite (|crossbar_controller#0| state) #b0 (|crossbar_controller#18| state))) ; $0$formal$crossbar_controller.v:40$2_EN[0:0]$11
; yosys-smt2-assert 1 $assert$crossbar_controller.v:40$18 crossbar_controller.v:40.26-41.39
(define-fun |crossbar_controller_a 1| ((state |crossbar_controller_s|)) Bool (or (= ((_ extract 0 0) (|crossbar_controller#17| state)) #b1) (not (= ((_ extract 0 0) (|crossbar_controller#19| state)) #b1)))) ; $assert$crossbar_controller.v:40$18
(define-fun |crossbar_controller#20| ((state |crossbar_controller_s|)) (_ BitVec 1) (ite (|crossbar_controller#0| state) (ite (|crossbar_controller#15| state) #b1 #b0) (|crossbar_controller#9| state))) ; $0$formal$crossbar_controller.v:38$1_CHECK[0:0]$8
(define-fun |crossbar_controller#21| ((state |crossbar_controller_s|)) (_ BitVec 1) (ite (|crossbar_controller#0| state) #b1 #b0)) ; $0$formal$crossbar_controller.v:38$1_EN[0:0]$9
; yosys-smt2-assert 2 $assert$crossbar_controller.v:38$17 crossbar_controller.v:38.17-39.39
(define-fun |crossbar_controller_a 2| ((state |crossbar_controller_s|)) Bool (or (= ((_ extract 0 0) (|crossbar_controller#20| state)) #b1) (not (= ((_ extract 0 0) (|crossbar_controller#21| state)) #b1)))) ; $assert$crossbar_controller.v:38$17
(define-fun |crossbar_controller_a| ((state |crossbar_controller_s|)) Bool (and
  (|crossbar_controller_a 0| state)
  (|crossbar_controller_a 1| state)
  (|crossbar_controller_a 2| state)
))
(define-fun |crossbar_controller_u| ((state |crossbar_controller_s|)) Bool true)
(define-fun |crossbar_controller_i| ((state |crossbar_controller_s|)) Bool true)
(define-fun |crossbar_controller_h| ((state |crossbar_controller_s|)) Bool true)
(define-fun |crossbar_controller_t| ((state |crossbar_controller_s|) (next_state |crossbar_controller_s|)) Bool true) ; end of module crossbar_controller
; yosys-smt2-topmod crossbar_controller
; end of yosys output
